PARAMETER_FILE = even/LKH_uncomplete_graph/x5/nei/par/random67.par
PROBLEM_FILE = even/LKH_uncomplete_graph/x5/nei/mat/random67.tsp
Successes/Runs = 0/10
Cost.min = 663, Cost.avg = 663.00, Cost.max = 663
Gap.min = 0.0000%, Gap.avg = 0.0000%, Gap.max = 0.0000%
Trials.min = 1000, Trials.avg = 1000.0, Trials.max = 1000
Time.min = 0.10 sec., Time.avg = 0.15 sec., Time.max = 0.18 sec.
Time.total = 1.53 sec.
请按任意键继续. . . 
